letting initialStacks = [17, 47, 25, 2, 10, 28, 12, 7, 19, 30, 22, 16, 48, 50, 39, 13, 24, 18, 5, 20, 21, 6, 8, 29, 15, 26, 1, 51, 36, 42, 32, 11, 14, 4, 41, 44, 23, 46, 43, 3, 31, 35, 34, 9, 37, 45, 27, 49, 33, 38, 40]
